
******************************************************************************
This program contains Ipopt, a library for large-scale nonlinear optimization.
 Ipopt is released as open source code under the Eclipse Public License (EPL).
         For more information visit https://github.com/coin-or/Ipopt
******************************************************************************

This is Ipopt version 3.14.19, running with linear solver MUMPS 5.8.1.

Number of nonzeros in equality constraint Jacobian...:     2204
Number of nonzeros in inequality constraint Jacobian.:        0
Number of nonzeros in Lagrangian Hessian.............:      525

Total number of variables............................:      647
                     variables with only lower bounds:        0
                variables with lower and upper bounds:      232
                     variables with only upper bounds:        0
Total number of equality constraints.................:      639
Total number of inequality constraints...............:        0
        inequality constraints with only lower bounds:        0
   inequality constraints with lower and upper bounds:        0
        inequality constraints with only upper bounds:        0

iter    objective    inf_pr   inf_du lg(mu)  ||d||  lg(rg) alpha_du alpha_pr  ls
   0  4.9463022e+00 9.90e+01 2.19e-05  -1.0 0.00e+00    -  0.00e+00 0.00e+00   0
   1  4.9635057e+00 1.48e+01 1.78e+01  -1.0 1.00e+02    -  5.05e-02 9.90e-01h  1
   2  4.9550683e+00 4.77e+00 5.15e-01  -1.0 1.36e+01    -  9.21e-01 1.00e+00h  1
   3  4.9468820e+00 8.26e+00 7.00e-02  -1.0 6.08e+00    -  9.90e-01 1.00e+00h  1
   4  4.9493400e+00 2.96e+00 1.11e-03  -1.0 9.30e+00    -  1.00e+00 1.00e+00h  1
   5  4.9486453e+00 1.41e-01 5.02e-05  -1.0 1.92e+00    -  1.00e+00 1.00e+00h  1
   6  4.9464026e+00 4.70e-01 1.04e-01  -2.5 1.05e+00    -  9.86e-01 1.00e+00h  1
   7  4.9463293e+00 5.54e-02 1.30e-05  -2.5 8.96e-01    -  1.00e+00 1.00e+00h  1
   8  4.9463292e+00 1.32e-05 2.86e-09  -2.5 7.36e-02    -  1.00e+00 1.00e+00h  1
   9  4.9463270e+00 1.76e-03 1.33e-06  -3.8 1.11e-01    -  1.00e+00 1.00e+00h  1
iter    objective    inf_pr   inf_du lg(mu)  ||d||  lg(rg) alpha_du alpha_pr  ls
  10  4.9463268e+00 1.76e-07 1.26e-11  -3.8 3.11e-03    -  1.00e+00 1.00e+00h  1
  11  4.9463267e+00 5.73e-06 1.06e-04  -5.7 6.46e-03    -  9.91e-01 1.00e+00h  1
  12  4.9463054e+00 1.93e-07 1.35e-05  -5.7 5.62e-01    -  7.56e-01 1.00e+00h  1
  13  4.9462994e+00 3.46e-09 1.51e-05  -8.6 1.50e-01    -  8.20e-01 1.00e+00h  1
  14  4.9462974e+00 2.01e-09 1.54e-06  -8.6 5.94e-02    -  9.93e-01 9.40e-01h  1
  15  4.9462974e+00 6.23e-12 1.34e-13  -8.6 9.54e-04    -  1.00e+00 1.00e+00f  1

Number of Iterations....: 15

                                   (scaled)                 (unscaled)
Objective...............:   4.9462973647753277e+00    4.9462973647753277e+00
Dual infeasibility......:   1.3378187446733136e-13    1.3378187446733136e-13
Constraint violation....:   6.2252425436938215e-12    6.2252425436938215e-12
Variable bound violation:   0.0000000000000000e+00    0.0000000000000000e+00
Complementarity.........:   3.2498176154443429e-09    3.2498176154443429e-09
Overall NLP error.......:   3.2498176154443429e-09    3.2498176154443429e-09


Number of objective function evaluations             = 16
Number of objective gradient evaluations             = 16
Number of equality constraint evaluations            = 16
Number of inequality constraint evaluations          = 0
Number of equality constraint Jacobian evaluations   = 16
Number of inequality constraint Jacobian evaluations = 0
Number of Lagrangian Hessian evaluations             = 15
Total seconds in IPOPT                               = 0.057

EXIT: Optimal Solution Found.
